09-routing/solutions/XSH-n20-k4-44.opt.sol
Route #1: 17 3 9 18 2 1
Route #2: 15 20 13 5 14
Route #3: 16 7 19 8 4
Route #4: 6 11 10 12
Cost 973
